p cnf 81 300
1 2 3 4 5 6 7 8 0
31 32 33 34 35 36 37 0
-1 -9 0
-1 -16 0
-1 -31 0
-1 -38 0
-1 -47 0
-1 -57 0
-1 -67 0
-1 -74 0
-9 -16 0
-9 -31 0
-9 -38 0
-9 -47 0
-9 -57 0
-9 -67 0
-9 -74 0
-16 -31 0
-16 -38 0
-16 -47 0
-16 -57 0
-16 -67 0
-16 -74 0
-31 -38 0
-31 -47 0
-31 -57 0
-31 -67 0
-31 -74 0
-38 -47 0
-38 -57 0
-38 -67 0
-38 -74 0
-47 -57 0
-47 -67 0
-47 -74 0
-57 -67 0
-57 -74 0
-67 -74 0
-2 -10 0
-2 -24 0
-2 -32 0
-2 -39 0
-2 -48 0
-2 -58 0
-2 -68 0
-2 -75 0
-10 -24 0
-10 -32 0
-10 -39 0
-10 -48 0
-10 -58 0
-10 -68 0
-10 -75 0
-24 -32 0
-24 -39 0
-24 -48 0
-24 -58 0
-24 -68 0
-24 -75 0
-32 -39 0
-32 -48 0
-32 -58 0
-32 -68 0
-32 -75 0
-39 -48 0
-39 -58 0
-39 -68 0
-39 -75 0
-48 -58 0
-48 -68 0
-48 -75 0
-58 -68 0
-58 -75 0
-68 -75 0
-3 -17 0
-3 -25 0
-3 -33 0
-3 -40 0
-3 -49 0
-3 -59 0
-3 -69 0
-17 -25 0
-17 -33 0
-17 -40 0
-17 -49 0
-17 -59 0
-17 -69 0
-25 -33 0
-25 -40 0
-25 -49 0
-25 -59 0
-25 -69 0
-33 -40 0
-33 -49 0
-33 -59 0
-33 -69 0
-40 -49 0
-40 -59 0
-40 -69 0
-49 -59 0
-49 -69 0
-59 -69 0
-4 -18 0
-4 -34 0
-4 -50 0
-4 -60 0
-4 -76 0
-18 -34 0
-18 -50 0
-18 -60 0
-18 -76 0
-34 -50 0
-34 -60 0
-34 -76 0
-50 -60 0
-50 -76 0
-60 -76 0
-11 -19 0
-11 -26 0
-11 -41 0
-11 -51 0
-11 -61 0
-11 -77 0
-19 -26 0
-19 -41 0
-19 -51 0
-19 -61 0
-19 -77 0
-26 -41 0
-26 -51 0
-26 -61 0
-26 -77 0
-41 -51 0
-41 -61 0
-41 -77 0
-51 -61 0
-51 -77 0
-61 -77 0
-5 -12 0
-5 -20 0
-5 -27 0
-5 -35 0
-5 -42 0
-5 -52 0
-5 -62 0
-5 -70 0
-5 -78 0
-12 -20 0
-12 -27 0
-12 -35 0
-12 -42 0
-12 -52 0
-12 -62 0
-12 -70 0
-12 -78 0
-20 -27 0
-20 -35 0
-20 -42 0
-20 -52 0
-20 -62 0
-20 -70 0
-20 -78 0
-27 -35 0
-27 -42 0
-27 -52 0
-27 -62 0
-27 -70 0
-27 -78 0
-35 -42 0
-35 -52 0
-35 -62 0
-35 -70 0
-35 -78 0
-42 -52 0
-42 -62 0
-42 -70 0
-42 -78 0
-52 -62 0
-52 -70 0
-52 -78 0
-62 -70 0
-62 -78 0
-70 -78 0
-6 -21 0
-6 -28 0
-6 -43 0
-6 -53 0
-6 -63 0
-6 -71 0
-21 -28 0
-21 -43 0
-21 -53 0
-21 -63 0
-21 -71 0
-28 -43 0
-28 -53 0
-28 -63 0
-28 -71 0
-43 -53 0
-43 -63 0
-43 -71 0
-53 -63 0
-53 -71 0
-63 -71 0
-7 -13 0
-7 -44 0
-7 -54 0
-7 -64 0
-7 -79 0
-13 -44 0
-13 -54 0
-13 -64 0
-13 -79 0
-44 -54 0
-44 -64 0
-44 -79 0
-54 -64 0
-54 -79 0
-64 -79 0
-14 -22 0
-14 -29 0
-14 -36 0
-14 -45 0
-14 -55 0
-14 -65 0
-14 -72 0
-14 -80 0
-22 -29 0
-22 -36 0
-22 -45 0
-22 -55 0
-22 -65 0
-22 -72 0
-22 -80 0
-29 -36 0
-29 -45 0
-29 -55 0
-29 -65 0
-29 -72 0
-29 -80 0
-36 -45 0
-36 -55 0
-36 -65 0
-36 -72 0
-36 -80 0
-45 -55 0
-45 -65 0
-45 -72 0
-45 -80 0
-55 -65 0
-55 -72 0
-55 -80 0
-65 -72 0
-65 -80 0
-72 -80 0
-8 -15 0
-8 -23 0
-8 -30 0
-8 -37 0
-8 -46 0
-8 -56 0
-8 -66 0
-8 -73 0
-8 -81 0
-15 -23 0
-15 -30 0
-15 -37 0
-15 -46 0
-15 -56 0
-15 -66 0
-15 -73 0
-15 -81 0
-23 -30 0
-23 -37 0
-23 -46 0
-23 -56 0
-23 -66 0
-23 -73 0
-23 -81 0
-30 -37 0
-30 -46 0
-30 -56 0
-30 -66 0
-30 -73 0
-30 -81 0
-37 -46 0
-37 -56 0
-37 -66 0
-37 -73 0
-37 -81 0
-46 -56 0
-46 -66 0
-46 -73 0
-46 -81 0
-56 -66 0
-56 -73 0
-56 -81 0
-66 -73 0
-66 -81 0
-73 -81 0
